CMPL model generation - running

CMPL version: 1.11.0
Authors: Thomas Schleiff, Mike Steglich
Distributed under the GPLv3 

create model instance ...
write model instance ...
CMPL model generation - finished

Solver - running


Welcome to IBM(R) ILOG(R) CPLEX(R) Interactive Optimizer 12.7.1.0
  with Simplex, Mixed Integer & Barrier Optimizers
5725-A06 5725-A29 5724-Y48 5724-Y49 5724-Y54 5724-Y55 5655-Y21
Copyright IBM Corp. 1988, 2017.  All Rights Reserved.

Type 'help' for a list of available commands.
Type 'help' followed by a command name for more
information on commands.

CPLEX> Specified objective sense: MINIMIZE
Selected objective  name:  line[1]
Selected RHS        name:  RHS
Selected bound      name:  BOUND
Problem '/tmp/cmpl.T24155.mps' read.
Read time = 0.09 sec. (10.12 ticks)
CPLEX> CPXPARAM_Read_APIEncoding                        "UTF-8"
Tried aggregator 3 times.
MIP Presolve eliminated 23976 rows and 37528 columns.
MIP Presolve modified 425 coefficients.
Aggregator did 786 substitutions.
Reduced MIP has 3160 rows, 4141 columns, and 12245 nonzeros.
Reduced MIP has 3931 binaries, 0 generals, 0 SOSs, and 0 indicators.
Presolve time = 0.08 sec. (50.31 ticks)
Found incumbent of value 903.357394 after 0.13 sec. (78.38 ticks)
Probing fixed 17 vars, tightened 0 bounds.
Probing time = 0.02 sec. (5.39 ticks)
Tried aggregator 1 time.
MIP Presolve eliminated 0 rows and 17 columns.
MIP Presolve modified 91 coefficients.
Reduced MIP has 3160 rows, 4124 columns, and 12211 nonzeros.
Reduced MIP has 4124 binaries, 0 generals, 0 SOSs, and 0 indicators.
Presolve time = 0.02 sec. (10.37 ticks)
Probing time = 0.01 sec. (2.84 ticks)
Clique table members: 7537.
MIP emphasis: balance optimality and feasibility.
MIP search method: dynamic search.
Parallel mode: none, using 1 thread.
Root relaxation solution time = 0.01 sec. (6.39 ticks)

        Nodes                                         Cuts/
   Node  Left     Objective  IInf  Best Integer    Best Bound    ItCnt     Gap

*     0+    0                          903.3574      -34.1680           103.78%
      0     0      254.1979     8      903.3574      254.1979      201   71.86%
*     0+    0                          262.3212      254.1979             3.10%
*     0+    0                          254.3807      254.1979             0.07%
      0     0      254.3180     1      254.3807      Cuts: 15      207    0.02%
*     0+    0                          254.3409      254.3180             0.01%

GUB cover cuts applied:  1
Cover cuts applied:  9
Gomory fractional cuts applied:  5

Root node processing (before b&c):
  Real time             =    0.24 sec. (132.30 ticks)
Sequential b&c:
  Real time             =    0.00 sec. (0.00 ticks)
                          ------------
Total (root+branch&cut) =    0.24 sec. (132.30 ticks)

Solution pool: 4 solutions saved.

MIP - Integer optimal, tolerance (0.0001/1e-06):  Objective =  2.5434085700e+02
Current MIP best bound =  2.5431800750e+02 (gap = 0.0228495, 0.01%)
Solution time =    0.24 sec.  Iterations = 207  Nodes = 0 (1)
Deterministic time = 132.42 ticks  (556.70 ticks/sec)

CPLEX> Incumbent solution written to file '/tmp/cmpl.T24155.gsol'.
CPLEX> 
CMPL: Time used for model generation: 0 seconds
CMPL: Time used for solving the model: 2 seconds


Solution written to ASCII file: results/output_generated_conf_0.5/2016-05-02-5/fair-nonlinear.sol

Solver - finished
